#  Crystalline InAs 

istwfk  *1

ndtset 2

#Dataset 1: usual self-consistent calculation and all input variable end with 1 refer for dataset 1
kptopt1 1          # Option for the automatic generation of k points, taking
                  # into account the symmetry

# this is remain same for all files or material
nshiftk1 4
shiftk1  0.5 0.5 0.5  # These shifts will be the same for all grids
        0.5 0.0 0.0
        0.0 0.5 0.0
        0.0 0.0 0.5
 
ngkpt1  4 4 4 

prtden1 1
toldfe1 1.0d-6    # This value is way too large for most realistic studies of materials

#Dataset 2: the band structure and all input variable end with 1 refer for dataset 2
iscf2     -2
getden2   -1
kptopt2   -3  
nband2    8
ndivk2    10 12 17      # 10, 12 and 17 divisions of the 3 segments, delimited
                        # by 4 point
kptbounds2  0.5  0.0  0.0 # L point
            0.0  0.0  0.0 # Gamma point
            0.25 0.5  0.75 # W
            0.375 0.375 0.75 #K
            1.0 1.0 1.0 # Gamma point in another cell.
            
tolwfr2 1.0d-12
enunit2 1             #will output the eigen enregy in eV

#Definition of the unit cell
acell  6.0583  6.0583 6.0683 Angstr  
angdeg 90 90 90   # this angle make cell as cubic structure

rprim  0.0  0.5  0.5   # FCC primitive vectors (to be scaled by acell)
       0.5  0.0  0.5   
       0.5  0.5  0.0

#Definition of the atom types
ntypat 2          # There are two types  of atom
znucl 49  33      # The keyword "znucl" refers to the atomic number of the 
                  # possible type(s) of atom. The pseudopotential(s) 
                  # mentioned in the "files" file must correspond
                  # to the type(s) of atom. Here, the only type is Silicon.
                         

#Definition of the atoms
natom 2           # There are two atoms
typat 1 2         # One atom is In, the other is As or typat 1 1 2 2
xred              # This keyword indicate that the location of the atoms
                  # will follow, one triplet of number for each atom
   0.0  0.0  0.0  # Triplet giving the REDUCED coordinate of atom 1.
   1/4  1/4  1/4  # Triplet giving the REDUCED coordinate of atom 2.


#Definition of the planewave basis set
ecut 4.0         # Maximal kinetic energy cut-off, in Hartree

#Definition of the SCF procedure
nstep 20          # Maximal number of SCF cycles

toldfe 1.0d-10     # Will stop when, twice in a row, the difference 
                  # between two consecutive evaluations of total energy 
                  # differ by less than toldfe (in Hartree) 
                  # This value is way too large for most realistic studies of material
diemac 12.0       # Although this is not mandatory, it is worth to
                  # precondition the SCF cycle. The model dielectric
                  # function used as the standard preconditioner
                  # is described in the "dielng" input variable section.
                  # Here, we follow the prescription for bulk InAs.
